(set-logic QF_NRA)
(set-info :source |Benchmarks generated from hycomp (https://es-static.fbk.eu/tools/hycomp/). BMC instances of non-linear hybrid automata taken from: Alessandro Cimatti, Sergio Mover, Stefano Tonetta, A quantifier-free SMT encoding of non-linear hybrid automata, FMCAD 2012 and Alessandro Cimatti, Sergio Mover, Stefano Tonetta, Quantier-free encoding of invariants for Hybrid Systems, Formal Methods in System Design. This instance solves a BMC problem of depth 2 and uses the quantifier free encoding with equivalences encoding. Contacts: Sergio Mover (mover@fbk.eu), Stefano Tonetta (tonettas@fbk.eu), Alessandro Cimatti (cimatti@fbk.eu).|)
(set-info :smt-lib-version 2.0)
(set-info :category "industrial")
(set-info :status unsat)
;; MathSAT API call trace
;; generated on Mon Mar 19 10:48:58 2012
(declare-fun m.event_is_timed__AT0 () Bool)
(declare-fun m.time__AT2 () Real)
(declare-fun m.event_is_timed__AT2 () Bool)
(declare-fun m.x__AT1 () Real)
(declare-fun m.delta__AT0 () Real)
(declare-fun m.y__AT2 () Real)
(declare-fun m.time__AT1 () Real)
(declare-fun m.speed_y__AT0 () Real)
(declare-fun m.EVENT.0__AT0 () Bool)
(declare-fun m.delta__AT2 () Real)
(declare-fun m.delta__AT1 () Real)
(declare-fun m.EVENT.1__AT0 () Bool)
(declare-fun m.x__AT2 () Real)
(declare-fun m.EVENT.0__AT2 () Bool)
(declare-fun m.y__AT1 () Real)
(declare-fun m.EVENT.1__AT2 () Bool)
(declare-fun m.speed_x__AT2 () Real)
(declare-fun m.speed_y__AT2 () Real)
(declare-fun m.event_is_timed__AT1 () Bool)
(declare-fun m.y__AT0 () Real)
(declare-fun m.speed_x__AT1 () Real)
(declare-fun m.speed_y__AT1 () Real)
(declare-fun m.time__AT0 () Real)
(declare-fun m.x__AT0 () Real)
(declare-fun m.EVENT.0__AT1 () Bool)
(declare-fun m.EVENT.1__AT1 () Bool)
(declare-fun m.speed_x__AT0 () Real)
(assert (let ((.def_718 (* m.speed_y__AT2 m.delta__AT2)))
(let ((.def_719 (* 10.0 .def_718)))
(let ((.def_592 (* m.delta__AT2 m.delta__AT2)))
(let ((.def_717 (* (- 49.0) .def_592)))
(let ((.def_720 (+ .def_717 .def_719)))
(let ((.def_721 (* 10.0 m.y__AT2)))
(let ((.def_723 (+ .def_721 .def_720)))
(let ((.def_733 (<= 0.0 .def_723)))
(let ((.def_571 (<= 0.0 m.y__AT2)))
(let ((.def_734 (and .def_571 .def_733)))
(let ((.def_728 (<= m.speed_y__AT2 0.0 )))
(let ((.def_707 (* (- 49.0) m.delta__AT2)))
(let ((.def_708 (* 5.0 m.speed_y__AT2)))
(let ((.def_710 (+ .def_708 .def_707)))
(let ((.def_711 (<= .def_710 0.0 )))
(let ((.def_729 (and .def_711 .def_728)))
(let ((.def_726 (<= 0.0 m.speed_y__AT2)))
(let ((.def_713 (<= 0.0 .def_710)))
(let ((.def_727 (and .def_713 .def_726)))
(let ((.def_730 (or .def_727 .def_729)))
(let ((.def_735 (and .def_730 .def_734)))
(let ((.def_724 (<= .def_723 1000.0 )))
(let ((.def_570 (<= m.y__AT2 100.0 )))
(let ((.def_725 (and .def_570 .def_724)))
(let ((.def_731 (and .def_725 .def_730)))
(let ((.def_618 (* m.x__AT2 m.speed_x__AT2)))
(let ((.def_674 (* (- 1.0) .def_618)))
(let ((.def_608 (* m.y__AT2 m.speed_y__AT2)))
(let ((.def_673 (* (- 1.0) .def_608)))
(let ((.def_675 (+ .def_673 .def_674)))
(let ((.def_676 (* 20.0 m.speed_x__AT2)))
(let ((.def_678 (+ .def_676 .def_675)))
(let ((.def_682 (<= 0.0 .def_678)))
(let ((.def_714 (and .def_682 .def_713)))
(let ((.def_679 (<= .def_678 0.0 )))
(let ((.def_712 (and .def_679 .def_711)))
(let ((.def_715 (or .def_712 .def_714)))
(let ((.def_596 (* (- (/ 49 10)) m.speed_y__AT2)))
(let ((.def_643 (* 3.0 .def_596)))
(let ((.def_686 (* 2.0 .def_643)))
(let ((.def_687 (* m.delta__AT2 .def_686)))
(let ((.def_688 (* (- 50.0) .def_687)))
(let ((.def_614 (* m.speed_x__AT2 m.speed_x__AT2)))
(let ((.def_691 (* (- 50.0) .def_614)))
(let ((.def_697 (+ .def_691 .def_688)))
(let ((.def_600 (* m.speed_y__AT2 m.speed_y__AT2)))
(let ((.def_689 (* (- 50.0) .def_600)))
(let ((.def_698 (+ .def_689 .def_697)))
(let ((.def_693 (* (- 7203.0) .def_592)))
(let ((.def_699 (+ .def_693 .def_698)))
(let ((.def_695 (* 490.0 m.y__AT2)))
(let ((.def_700 (+ .def_695 .def_699)))
(let ((.def_703 (<= 0.0 .def_700)))
(let ((.def_704 (and .def_682 .def_703)))
(let ((.def_701 (<= .def_700 0.0 )))
(let ((.def_702 (and .def_679 .def_701)))
(let ((.def_705 (or .def_702 .def_704)))
(let ((.def_655 (* 2.0 .def_614)))
(let ((.def_656 (* m.delta__AT2 .def_655)))
(let ((.def_657 (* (- 25.0) .def_656)))
(let ((.def_604 (* (- (/ 49 10)) m.y__AT2)))
(let ((.def_651 (* 2.0 .def_604)))
(let ((.def_652 (* m.delta__AT2 .def_651)))
(let ((.def_653 (* (- 50.0) .def_652)))
(let ((.def_665 (+ .def_653 .def_657)))
(let ((.def_647 (* 2.0 .def_600)))
(let ((.def_648 (* m.delta__AT2 .def_647)))
(let ((.def_649 (* (- 25.0) .def_648)))
(let ((.def_666 (+ .def_649 .def_665)))
(let ((.def_644 (* .def_592 .def_643)))
(let ((.def_645 (* (- 50.0) .def_644)))
(let ((.def_667 (+ .def_645 .def_666)))
(let ((.def_661 (* (- 50.0) .def_618)))
(let ((.def_668 (+ .def_661 .def_667)))
(let ((.def_659 (* (- 50.0) .def_608)))
(let ((.def_669 (+ .def_659 .def_668)))
(let ((.def_593 (* m.delta__AT2 .def_592)))
(let ((.def_642 (* (- 2401.0) .def_593)))
(let ((.def_670 (+ .def_642 .def_669)))
(let ((.def_663 (* 1000.0 m.speed_x__AT2)))
(let ((.def_671 (+ .def_663 .def_670)))
(let ((.def_681 (<= 0.0 .def_671)))
(let ((.def_683 (and .def_681 .def_682)))
(let ((.def_672 (<= .def_671 0.0 )))
(let ((.def_680 (and .def_672 .def_679)))
(let ((.def_684 (or .def_680 .def_683)))
(let ((.def_624 (* (- 20.0) m.speed_x__AT2)))
(let ((.def_625 (* m.delta__AT2 .def_624)))
(let ((.def_626 (* (- 200.0) .def_625)))
(let ((.def_619 (* m.delta__AT2 .def_618)))
(let ((.def_620 (* (- 200.0) .def_619)))
(let ((.def_630 (+ .def_620 .def_626)))
(let ((.def_615 (* .def_592 .def_614)))
(let ((.def_616 (* (- 100.0) .def_615)))
(let ((.def_631 (+ .def_616 .def_630)))
(let ((.def_609 (* m.delta__AT2 .def_608)))
(let ((.def_610 (* (- 200.0) .def_609)))
(let ((.def_632 (+ .def_610 .def_631)))
(let ((.def_605 (* .def_592 .def_604)))
(let ((.def_606 (* (- 200.0) .def_605)))
(let ((.def_633 (+ .def_606 .def_632)))
(let ((.def_601 (* .def_592 .def_600)))
(let ((.def_602 (* (- 100.0) .def_601)))
(let ((.def_634 (+ .def_602 .def_633)))
(let ((.def_597 (* .def_593 .def_596)))
(let ((.def_598 (* (- 200.0) .def_597)))
(let ((.def_635 (+ .def_598 .def_634)))
(let ((.def_594 (* m.delta__AT2 .def_593)))
(let ((.def_595 (* (- 2401.0) .def_594)))
(let ((.def_636 (+ .def_595 .def_635)))
(let ((.def_585 (* m.x__AT2 m.x__AT2)))
(let ((.def_622 (* (- 100.0) .def_585)))
(let ((.def_637 (+ .def_622 .def_636)))
(let ((.def_565 (* m.y__AT2 m.y__AT2)))
(let ((.def_612 (* (- 100.0) .def_565)))
(let ((.def_638 (+ .def_612 .def_637)))
(let ((.def_628 (* 4000.0 m.x__AT2)))
(let ((.def_639 (+ .def_628 .def_638)))
(let ((.def_640 (<= .def_639 0.0 )))
(let ((.def_586 (* (- 1.0) .def_585)))
(let ((.def_584 (* (- 1.0) .def_565)))
(let ((.def_587 (+ .def_584 .def_586)))
(let ((.def_588 (* 40.0 m.x__AT2)))
(let ((.def_590 (+ .def_588 .def_587)))
(let ((.def_591 (<= .def_590 0.0 )))
(let ((.def_641 (and .def_591 .def_640)))
(let ((.def_685 (and .def_641 .def_684)))
(let ((.def_706 (and .def_685 .def_705)))
(let ((.def_716 (and .def_706 .def_715)))
(let ((.def_732 (and .def_716 .def_731)))
(let ((.def_736 (and .def_732 .def_735)))
(let ((.def_580 (* m.speed_x__AT2 m.delta__AT2)))
(let ((.def_581 (+ m.x__AT2 .def_580)))
(let ((.def_582 (<= 0.0 .def_581)))
(let ((.def_568 (<= 0.0 m.x__AT2)))
(let ((.def_583 (and .def_568 .def_582)))
(let ((.def_737 (and .def_583 .def_736)))
(let ((.def_576 (<= m.x__AT1 20.0 )))
(let ((.def_572 (and .def_570 .def_571)))
(let ((.def_563 (+ m.x__AT2 (- 20.0) )))
(let ((.def_564 (* .def_563 .def_563)))
(let ((.def_566 (+ .def_564 .def_565)))
(let ((.def_567 (<= 400.0 .def_566)))
(let ((.def_569 (and .def_567 .def_568)))
(let ((.def_573 (and .def_569 .def_572)))
(let ((.def_561 (not m.EVENT.0__AT2)))
(let ((.def_559 (not m.EVENT.1__AT2)))
(let ((.def_562 (or .def_559 .def_561)))
(let ((.def_574 (and .def_562 .def_573)))
(let ((.def_553 (<= 0.0 m.delta__AT1)))
(let ((.def_306 (not m.EVENT.0__AT1)))
(let ((.def_304 (not m.EVENT.1__AT1)))
(let ((.def_484 (and .def_304 .def_306)))
(let ((.def_486 (not .def_484)))
(let ((.def_554 (or .def_486 .def_553)))
(let ((.def_555 (or m.EVENT.1__AT1 .def_554)))
(let ((.def_541 (* (- 10.0) m.y__AT2)))
(let ((.def_463 (* m.speed_y__AT1 m.delta__AT1)))
(let ((.def_464 (* 10.0 .def_463)))
(let ((.def_545 (+ .def_464 .def_541)))
(let ((.def_337 (* m.delta__AT1 m.delta__AT1)))
(let ((.def_462 (* (- 49.0) .def_337)))
(let ((.def_546 (+ .def_462 .def_545)))
(let ((.def_466 (* 10.0 m.y__AT1)))
(let ((.def_547 (+ .def_466 .def_546)))
(let ((.def_548 (= .def_547 0.0 )))
(let ((.def_536 (* (- 5.0) m.speed_y__AT2)))
(let ((.def_452 (* (- 49.0) m.delta__AT1)))
(let ((.def_537 (+ .def_452 .def_536)))
(let ((.def_453 (* 5.0 m.speed_y__AT1)))
(let ((.def_538 (+ .def_453 .def_537)))
(let ((.def_539 (= .def_538 0.0 )))
(let ((.def_325 (* m.speed_x__AT1 m.delta__AT1)))
(let ((.def_531 (* (- 1.0) .def_325)))
(let ((.def_275 (* (- 1.0) m.x__AT1)))
(let ((.def_532 (+ .def_275 .def_531)))
(let ((.def_533 (+ m.x__AT2 .def_532)))
(let ((.def_534 (= .def_533 0.0 )))
(let ((.def_509 (= m.speed_x__AT1 m.speed_x__AT2)))
(let ((.def_535 (and .def_509 .def_534)))
(let ((.def_540 (and .def_535 .def_539)))
(let ((.def_549 (and .def_540 .def_548)))
(let ((.def_550 (or .def_486 .def_549)))
(let ((.def_522 (= m.delta__AT1 0.0 )))
(let ((.def_523 (and .def_484 .def_522)))
(let ((.def_524 (not .def_523)))
(let ((.def_506 (= m.y__AT1 m.y__AT2)))
(let ((.def_503 (= m.x__AT2 m.x__AT1)))
(let ((.def_517 (and .def_503 .def_506)))
(let ((.def_518 (and .def_509 .def_517)))
(let ((.def_512 (= m.speed_y__AT1 m.speed_y__AT2)))
(let ((.def_519 (and .def_512 .def_518)))
(let ((.def_525 (or .def_519 .def_524)))
(let ((.def_526 (or m.EVENT.1__AT1 .def_525)))
(let ((.def_520 (or .def_484 .def_519)))
(let ((.def_521 (or m.EVENT.1__AT1 .def_520)))
(let ((.def_527 (and .def_521 .def_526)))
(let ((.def_551 (and .def_527 .def_550)))
(let ((.def_491 (= m.time__AT1 m.time__AT2)))
(let ((.def_504 (and .def_491 .def_503)))
(let ((.def_507 (and .def_504 .def_506)))
(let ((.def_510 (and .def_507 .def_509)))
(let ((.def_513 (and .def_510 .def_512)))
(let ((.def_514 (or .def_304 .def_513)))
(let ((.def_494 (* (- 1.0) m.time__AT2)))
(let ((.def_497 (+ m.delta__AT1 .def_494)))
(let ((.def_498 (+ m.time__AT1 .def_497)))
(let ((.def_499 (= .def_498 0.0 )))
(let ((.def_500 (or .def_486 .def_499)))
(let ((.def_501 (or m.EVENT.1__AT1 .def_500)))
(let ((.def_492 (or .def_484 .def_491)))
(let ((.def_493 (or m.EVENT.1__AT1 .def_492)))
(let ((.def_502 (and .def_493 .def_501)))
(let ((.def_515 (and .def_502 .def_514)))
(let ((.def_488 (= .def_486 m.event_is_timed__AT2)))
(let ((.def_485 (= m.event_is_timed__AT1 .def_484)))
(let ((.def_489 (and .def_485 .def_488)))
(let ((.def_516 (and .def_489 .def_515)))
(let ((.def_552 (and .def_516 .def_551)))
(let ((.def_556 (and .def_552 .def_555)))
(let ((.def_557 (and .def_304 .def_556)))
(let ((.def_575 (and .def_557 .def_574)))
(let ((.def_577 (and .def_575 .def_576)))
(let ((.def_465 (+ .def_462 .def_464)))
(let ((.def_468 (+ .def_466 .def_465)))
(let ((.def_478 (<= 0.0 .def_468)))
(let ((.def_316 (<= 0.0 m.y__AT1)))
(let ((.def_479 (and .def_316 .def_478)))
(let ((.def_473 (<= m.speed_y__AT1 0.0 )))
(let ((.def_455 (+ .def_453 .def_452)))
(let ((.def_456 (<= .def_455 0.0 )))
(let ((.def_474 (and .def_456 .def_473)))
(let ((.def_471 (<= 0.0 m.speed_y__AT1)))
(let ((.def_458 (<= 0.0 .def_455)))
(let ((.def_472 (and .def_458 .def_471)))
(let ((.def_475 (or .def_472 .def_474)))
(let ((.def_480 (and .def_475 .def_479)))
(let ((.def_469 (<= .def_468 1000.0 )))
(let ((.def_315 (<= m.y__AT1 100.0 )))
(let ((.def_470 (and .def_315 .def_469)))
(let ((.def_476 (and .def_470 .def_475)))
(let ((.def_363 (* m.x__AT1 m.speed_x__AT1)))
(let ((.def_419 (* (- 1.0) .def_363)))
(let ((.def_353 (* m.y__AT1 m.speed_y__AT1)))
(let ((.def_418 (* (- 1.0) .def_353)))
(let ((.def_420 (+ .def_418 .def_419)))
(let ((.def_421 (* 20.0 m.speed_x__AT1)))
(let ((.def_423 (+ .def_421 .def_420)))
(let ((.def_427 (<= 0.0 .def_423)))
(let ((.def_459 (and .def_427 .def_458)))
(let ((.def_424 (<= .def_423 0.0 )))
(let ((.def_457 (and .def_424 .def_456)))
(let ((.def_460 (or .def_457 .def_459)))
(let ((.def_341 (* (- (/ 49 10)) m.speed_y__AT1)))
(let ((.def_388 (* 3.0 .def_341)))
(let ((.def_431 (* 2.0 .def_388)))
(let ((.def_432 (* m.delta__AT1 .def_431)))
(let ((.def_433 (* (- 50.0) .def_432)))
(let ((.def_359 (* m.speed_x__AT1 m.speed_x__AT1)))
(let ((.def_436 (* (- 50.0) .def_359)))
(let ((.def_442 (+ .def_436 .def_433)))
(let ((.def_345 (* m.speed_y__AT1 m.speed_y__AT1)))
(let ((.def_434 (* (- 50.0) .def_345)))
(let ((.def_443 (+ .def_434 .def_442)))
(let ((.def_438 (* (- 7203.0) .def_337)))
(let ((.def_444 (+ .def_438 .def_443)))
(let ((.def_440 (* 490.0 m.y__AT1)))
(let ((.def_445 (+ .def_440 .def_444)))
(let ((.def_448 (<= 0.0 .def_445)))
(let ((.def_449 (and .def_427 .def_448)))
(let ((.def_446 (<= .def_445 0.0 )))
(let ((.def_447 (and .def_424 .def_446)))
(let ((.def_450 (or .def_447 .def_449)))
(let ((.def_400 (* 2.0 .def_359)))
(let ((.def_401 (* m.delta__AT1 .def_400)))
(let ((.def_402 (* (- 25.0) .def_401)))
(let ((.def_349 (* (- (/ 49 10)) m.y__AT1)))
(let ((.def_396 (* 2.0 .def_349)))
(let ((.def_397 (* m.delta__AT1 .def_396)))
(let ((.def_398 (* (- 50.0) .def_397)))
(let ((.def_410 (+ .def_398 .def_402)))
(let ((.def_392 (* 2.0 .def_345)))
(let ((.def_393 (* m.delta__AT1 .def_392)))
(let ((.def_394 (* (- 25.0) .def_393)))
(let ((.def_411 (+ .def_394 .def_410)))
(let ((.def_389 (* .def_337 .def_388)))
(let ((.def_390 (* (- 50.0) .def_389)))
(let ((.def_412 (+ .def_390 .def_411)))
(let ((.def_406 (* (- 50.0) .def_363)))
(let ((.def_413 (+ .def_406 .def_412)))
(let ((.def_404 (* (- 50.0) .def_353)))
(let ((.def_414 (+ .def_404 .def_413)))
(let ((.def_338 (* m.delta__AT1 .def_337)))
(let ((.def_387 (* (- 2401.0) .def_338)))
(let ((.def_415 (+ .def_387 .def_414)))
(let ((.def_408 (* 1000.0 m.speed_x__AT1)))
(let ((.def_416 (+ .def_408 .def_415)))
(let ((.def_426 (<= 0.0 .def_416)))
(let ((.def_428 (and .def_426 .def_427)))
(let ((.def_417 (<= .def_416 0.0 )))
(let ((.def_425 (and .def_417 .def_424)))
(let ((.def_429 (or .def_425 .def_428)))
(let ((.def_369 (* (- 20.0) m.speed_x__AT1)))
(let ((.def_370 (* m.delta__AT1 .def_369)))
(let ((.def_371 (* (- 200.0) .def_370)))
(let ((.def_364 (* m.delta__AT1 .def_363)))
(let ((.def_365 (* (- 200.0) .def_364)))
(let ((.def_375 (+ .def_365 .def_371)))
(let ((.def_360 (* .def_337 .def_359)))
(let ((.def_361 (* (- 100.0) .def_360)))
(let ((.def_376 (+ .def_361 .def_375)))
(let ((.def_354 (* m.delta__AT1 .def_353)))
(let ((.def_355 (* (- 200.0) .def_354)))
(let ((.def_377 (+ .def_355 .def_376)))
(let ((.def_350 (* .def_337 .def_349)))
(let ((.def_351 (* (- 200.0) .def_350)))
(let ((.def_378 (+ .def_351 .def_377)))
(let ((.def_346 (* .def_337 .def_345)))
(let ((.def_347 (* (- 100.0) .def_346)))
(let ((.def_379 (+ .def_347 .def_378)))
(let ((.def_342 (* .def_338 .def_341)))
(let ((.def_343 (* (- 200.0) .def_342)))
(let ((.def_380 (+ .def_343 .def_379)))
(let ((.def_339 (* m.delta__AT1 .def_338)))
(let ((.def_340 (* (- 2401.0) .def_339)))
(let ((.def_381 (+ .def_340 .def_380)))
(let ((.def_330 (* m.x__AT1 m.x__AT1)))
(let ((.def_367 (* (- 100.0) .def_330)))
(let ((.def_382 (+ .def_367 .def_381)))
(let ((.def_310 (* m.y__AT1 m.y__AT1)))
(let ((.def_357 (* (- 100.0) .def_310)))
(let ((.def_383 (+ .def_357 .def_382)))
(let ((.def_373 (* 4000.0 m.x__AT1)))
(let ((.def_384 (+ .def_373 .def_383)))
(let ((.def_385 (<= .def_384 0.0 )))
(let ((.def_331 (* (- 1.0) .def_330)))
(let ((.def_329 (* (- 1.0) .def_310)))
(let ((.def_332 (+ .def_329 .def_331)))
(let ((.def_333 (* 40.0 m.x__AT1)))
(let ((.def_335 (+ .def_333 .def_332)))
(let ((.def_336 (<= .def_335 0.0 )))
(let ((.def_386 (and .def_336 .def_385)))
(let ((.def_430 (and .def_386 .def_429)))
(let ((.def_451 (and .def_430 .def_450)))
(let ((.def_461 (and .def_451 .def_460)))
(let ((.def_477 (and .def_461 .def_476)))
(let ((.def_481 (and .def_477 .def_480)))
(let ((.def_326 (+ m.x__AT1 .def_325)))
(let ((.def_327 (<= 0.0 .def_326)))
(let ((.def_313 (<= 0.0 m.x__AT1)))
(let ((.def_328 (and .def_313 .def_327)))
(let ((.def_482 (and .def_328 .def_481)))
(let ((.def_321 (<= m.x__AT0 20.0 )))
(let ((.def_317 (and .def_315 .def_316)))
(let ((.def_308 (+ (- 20.0) m.x__AT1)))
(let ((.def_309 (* .def_308 .def_308)))
(let ((.def_311 (+ .def_309 .def_310)))
(let ((.def_312 (<= 400.0 .def_311)))
(let ((.def_314 (and .def_312 .def_313)))
(let ((.def_318 (and .def_314 .def_317)))
(let ((.def_307 (or .def_304 .def_306)))
(let ((.def_319 (and .def_307 .def_318)))
(let ((.def_298 (<= 0.0 m.delta__AT0)))
(let ((.def_27 (not m.EVENT.0__AT0)))
(let ((.def_25 (not m.EVENT.1__AT0)))
(let ((.def_230 (and .def_25 .def_27)))
(let ((.def_232 (not .def_230)))
(let ((.def_299 (or .def_232 .def_298)))
(let ((.def_300 (or m.EVENT.1__AT0 .def_299)))
(let ((.def_287 (* (- 10.0) m.y__AT1)))
(let ((.def_210 (* m.speed_y__AT0 m.delta__AT0)))
(let ((.def_211 (* 10.0 .def_210)))
(let ((.def_290 (+ .def_211 .def_287)))
(let ((.def_62 (* m.delta__AT0 m.delta__AT0)))
(let ((.def_209 (* (- 49.0) .def_62)))
(let ((.def_291 (+ .def_209 .def_290)))
(let ((.def_213 (* 10.0 m.y__AT0)))
(let ((.def_292 (+ .def_213 .def_291)))
(let ((.def_293 (= .def_292 0.0 )))
(let ((.def_281 (* (- 5.0) m.speed_y__AT1)))
(let ((.def_198 (* (- 49.0) m.delta__AT0)))
(let ((.def_282 (+ .def_198 .def_281)))
(let ((.def_200 (* 5.0 m.speed_y__AT0)))
(let ((.def_283 (+ .def_200 .def_282)))
(let ((.def_284 (= .def_283 0.0 )))
(let ((.def_47 (* m.speed_x__AT0 m.delta__AT0)))
(let ((.def_276 (+ .def_47 .def_275)))
(let ((.def_277 (+ m.x__AT0 .def_276)))
(let ((.def_278 (= .def_277 0.0 )))
(let ((.def_256 (= m.speed_x__AT0 m.speed_x__AT1)))
(let ((.def_279 (and .def_256 .def_278)))
(let ((.def_285 (and .def_279 .def_284)))
(let ((.def_294 (and .def_285 .def_293)))
(let ((.def_295 (or .def_232 .def_294)))
(let ((.def_269 (= m.delta__AT0 0.0 )))
(let ((.def_270 (and .def_230 .def_269)))
(let ((.def_271 (not .def_270)))
(let ((.def_253 (= m.y__AT0 m.y__AT1)))
(let ((.def_250 (= m.x__AT0 m.x__AT1)))
(let ((.def_264 (and .def_250 .def_253)))
(let ((.def_265 (and .def_256 .def_264)))
(let ((.def_259 (= m.speed_y__AT0 m.speed_y__AT1)))
(let ((.def_266 (and .def_259 .def_265)))
(let ((.def_272 (or .def_266 .def_271)))
(let ((.def_273 (or m.EVENT.1__AT0 .def_272)))
(let ((.def_267 (or .def_230 .def_266)))
(let ((.def_268 (or m.EVENT.1__AT0 .def_267)))
(let ((.def_274 (and .def_268 .def_273)))
(let ((.def_296 (and .def_274 .def_295)))
(let ((.def_237 (= m.time__AT0 m.time__AT1)))
(let ((.def_251 (and .def_237 .def_250)))
(let ((.def_254 (and .def_251 .def_253)))
(let ((.def_257 (and .def_254 .def_256)))
(let ((.def_260 (and .def_257 .def_259)))
(let ((.def_261 (or .def_25 .def_260)))
(let ((.def_240 (* (- 1.0) m.time__AT1)))
(let ((.def_243 (+ m.delta__AT0 .def_240)))
(let ((.def_244 (+ m.time__AT0 .def_243)))
(let ((.def_245 (= .def_244 0.0 )))
(let ((.def_246 (or .def_232 .def_245)))
(let ((.def_247 (or m.EVENT.1__AT0 .def_246)))
(let ((.def_238 (or .def_230 .def_237)))
(let ((.def_239 (or m.EVENT.1__AT0 .def_238)))
(let ((.def_248 (and .def_239 .def_247)))
(let ((.def_262 (and .def_248 .def_261)))
(let ((.def_234 (= .def_232 m.event_is_timed__AT1)))
(let ((.def_231 (= m.event_is_timed__AT0 .def_230)))
(let ((.def_235 (and .def_231 .def_234)))
(let ((.def_263 (and .def_235 .def_262)))
(let ((.def_297 (and .def_263 .def_296)))
(let ((.def_301 (and .def_297 .def_300)))
(let ((.def_302 (and .def_25 .def_301)))
(let ((.def_320 (and .def_302 .def_319)))
(let ((.def_322 (and .def_320 .def_321)))
(let ((.def_212 (+ .def_209 .def_211)))
(let ((.def_215 (+ .def_213 .def_212)))
(let ((.def_224 (<= 0.0 .def_215)))
(let ((.def_40 (<= 0.0 m.y__AT0)))
(let ((.def_225 (and .def_40 .def_224)))
(let ((.def_219 (<= m.speed_y__AT0 0.0 )))
(let ((.def_202 (+ .def_200 .def_198)))
(let ((.def_203 (<= .def_202 0.0 )))
(let ((.def_220 (and .def_203 .def_219)))
(let ((.def_205 (<= 0.0 .def_202)))
(let ((.def_22 (<= 0.0 m.speed_y__AT0)))
(let ((.def_218 (and .def_22 .def_205)))
(let ((.def_221 (or .def_218 .def_220)))
(let ((.def_226 (and .def_221 .def_225)))
(let ((.def_216 (<= .def_215 1000.0 )))
(let ((.def_39 (<= m.y__AT0 100.0 )))
(let ((.def_217 (and .def_39 .def_216)))
(let ((.def_222 (and .def_217 .def_221)))
(let ((.def_97 (* m.x__AT0 m.speed_x__AT0)))
(let ((.def_161 (* (- 1.0) .def_97)))
(let ((.def_87 (* m.y__AT0 m.speed_y__AT0)))
(let ((.def_160 (* (- 1.0) .def_87)))
(let ((.def_162 (+ .def_160 .def_161)))
(let ((.def_163 (* 20.0 m.speed_x__AT0)))
(let ((.def_165 (+ .def_163 .def_162)))
(let ((.def_169 (<= 0.0 .def_165)))
(let ((.def_206 (and .def_169 .def_205)))
(let ((.def_166 (<= .def_165 0.0 )))
(let ((.def_204 (and .def_166 .def_203)))
(let ((.def_207 (or .def_204 .def_206)))
(let ((.def_72 (* (- (/ 49 10)) m.speed_y__AT0)))
(let ((.def_124 (* 3.0 .def_72)))
(let ((.def_173 (* 2.0 .def_124)))
(let ((.def_174 (* m.delta__AT0 .def_173)))
(let ((.def_175 (* (- 50.0) .def_174)))
(let ((.def_93 (* m.speed_x__AT0 m.speed_x__AT0)))
(let ((.def_178 (* (- 50.0) .def_93)))
(let ((.def_187 (+ .def_178 .def_175)))
(let ((.def_78 (* m.speed_y__AT0 m.speed_y__AT0)))
(let ((.def_176 (* (- 50.0) .def_78)))
(let ((.def_188 (+ .def_176 .def_187)))
(let ((.def_182 (* (- 7203.0) .def_62)))
(let ((.def_189 (+ .def_182 .def_188)))
(let ((.def_185 (* 490.0 m.y__AT0)))
(let ((.def_190 (+ .def_185 .def_189)))
(let ((.def_193 (<= 0.0 .def_190)))
(let ((.def_194 (and .def_169 .def_193)))
(let ((.def_191 (<= .def_190 0.0 )))
(let ((.def_192 (and .def_166 .def_191)))
(let ((.def_195 (or .def_192 .def_194)))
(let ((.def_141 (* 2.0 .def_93)))
(let ((.def_142 (* m.delta__AT0 .def_141)))
(let ((.def_143 (* (- 25.0) .def_142)))
(let ((.def_83 (* (- (/ 49 10)) m.y__AT0)))
(let ((.def_137 (* 2.0 .def_83)))
(let ((.def_138 (* m.delta__AT0 .def_137)))
(let ((.def_139 (* (- 50.0) .def_138)))
(let ((.def_152 (+ .def_139 .def_143)))
(let ((.def_131 (* 2.0 .def_78)))
(let ((.def_132 (* m.delta__AT0 .def_131)))
(let ((.def_135 (* (- 25.0) .def_132)))
(let ((.def_153 (+ .def_135 .def_152)))
(let ((.def_125 (* .def_62 .def_124)))
(let ((.def_128 (* (- 50.0) .def_125)))
(let ((.def_154 (+ .def_128 .def_153)))
(let ((.def_147 (* (- 50.0) .def_97)))
(let ((.def_155 (+ .def_147 .def_154)))
(let ((.def_145 (* (- 50.0) .def_87)))
(let ((.def_156 (+ .def_145 .def_155)))
(let ((.def_63 (* m.delta__AT0 .def_62)))
(let ((.def_122 (* (- 2401.0) .def_63)))
(let ((.def_157 (+ .def_122 .def_156)))
(let ((.def_150 (* 1000.0 m.speed_x__AT0)))
(let ((.def_158 (+ .def_150 .def_157)))
(let ((.def_168 (<= 0.0 .def_158)))
(let ((.def_170 (and .def_168 .def_169)))
(let ((.def_159 (<= .def_158 0.0 )))
(let ((.def_167 (and .def_159 .def_166)))
(let ((.def_171 (or .def_167 .def_170)))
(let ((.def_103 (* (- 20.0) m.speed_x__AT0)))
(let ((.def_104 (* m.delta__AT0 .def_103)))
(let ((.def_105 (* (- 200.0) .def_104)))
(let ((.def_98 (* m.delta__AT0 .def_97)))
(let ((.def_99 (* (- 200.0) .def_98)))
(let ((.def_110 (+ .def_99 .def_105)))
(let ((.def_94 (* .def_62 .def_93)))
(let ((.def_95 (* (- 100.0) .def_94)))
(let ((.def_111 (+ .def_95 .def_110)))
(let ((.def_88 (* m.delta__AT0 .def_87)))
(let ((.def_89 (* (- 200.0) .def_88)))
(let ((.def_112 (+ .def_89 .def_111)))
(let ((.def_84 (* .def_62 .def_83)))
(let ((.def_85 (* (- 200.0) .def_84)))
(let ((.def_113 (+ .def_85 .def_112)))
(let ((.def_79 (* .def_62 .def_78)))
(let ((.def_81 (* (- 100.0) .def_79)))
(let ((.def_114 (+ .def_81 .def_113)))
(let ((.def_73 (* .def_63 .def_72)))
(let ((.def_76 (* (- 200.0) .def_73)))
(let ((.def_115 (+ .def_76 .def_114)))
(let ((.def_64 (* m.delta__AT0 .def_63)))
(let ((.def_67 (* (- 2401.0) .def_64)))
(let ((.def_116 (+ .def_67 .def_115)))
(let ((.def_54 (* m.x__AT0 m.x__AT0)))
(let ((.def_101 (* (- 100.0) .def_54)))
(let ((.def_117 (+ .def_101 .def_116)))
(let ((.def_32 (* m.y__AT0 m.y__AT0)))
(let ((.def_91 (* (- 100.0) .def_32)))
(let ((.def_118 (+ .def_91 .def_117)))
(let ((.def_108 (* 4000.0 m.x__AT0)))
(let ((.def_119 (+ .def_108 .def_118)))
(let ((.def_120 (<= .def_119 0.0 )))
(let ((.def_55 (* (- 1.0) .def_54)))
(let ((.def_53 (* (- 1.0) .def_32)))
(let ((.def_56 (+ .def_53 .def_55)))
(let ((.def_58 (* 40.0 m.x__AT0)))
(let ((.def_60 (+ .def_58 .def_56)))
(let ((.def_61 (<= .def_60 0.0 )))
(let ((.def_121 (and .def_61 .def_120)))
(let ((.def_172 (and .def_121 .def_171)))
(let ((.def_196 (and .def_172 .def_195)))
(let ((.def_208 (and .def_196 .def_207)))
(let ((.def_223 (and .def_208 .def_222)))
(let ((.def_227 (and .def_223 .def_226)))
(let ((.def_48 (+ m.x__AT0 .def_47)))
(let ((.def_49 (<= 0.0 .def_48)))
(let ((.def_36 (<= 0.0 m.x__AT0)))
(let ((.def_50 (and .def_36 .def_49)))
(let ((.def_228 (and .def_50 .def_227)))
(let ((.def_41 (and .def_39 .def_40)))
(let ((.def_30 (+ m.x__AT0 (- 20.0) )))
(let ((.def_31 (* .def_30 .def_30)))
(let ((.def_33 (+ .def_31 .def_32)))
(let ((.def_35 (<= 400.0 .def_33)))
(let ((.def_37 (and .def_35 .def_36)))
(let ((.def_42 (and .def_37 .def_41)))
(let ((.def_28 (or .def_25 .def_27)))
(let ((.def_43 (and .def_28 .def_42)))
(let ((.def_19 (<= 0.0 m.speed_x__AT0)))
(let ((.def_16 (= m.y__AT0 0.0 )))
(let ((.def_13 (= m.x__AT0 0.0 )))
(let ((.def_9 (= m.time__AT0 0.0 )))
(let ((.def_11 (and .def_9 m.event_is_timed__AT0)))
(let ((.def_14 (and .def_11 .def_13)))
(let ((.def_17 (and .def_14 .def_16)))
(let ((.def_20 (and .def_17 .def_19)))
(let ((.def_23 (and .def_20 .def_22)))
(let ((.def_44 (and .def_23 .def_43)))
(let ((.def_5 (<= m.x__AT2 20.0 )))
(let ((.def_6 (not .def_5)))
(let ((.def_45 (and .def_6 .def_44)))
(let ((.def_229 (and .def_45 .def_228)))
(let ((.def_323 (and .def_229 .def_322)))
(let ((.def_483 (and .def_323 .def_482)))
(let ((.def_578 (and .def_483 .def_577)))
(let ((.def_738 (and .def_578 .def_737)))
.def_738)))))))))))))))))))))))))))))))))))))))))))))))))))))))))))))))))))))))))))))))))))))))))))))))))))))))))))))))))))))))))))))))))))))))))))))))))))))))))))))))))))))))))))))))))))))))))))))))))))))))))))))))))))))))))))))))))))))))))))))))))))))))))))))))))))))))))))))))))))))))))))))))))))))))))))))))))))))))))))))))))))))))))))))))))))))))))))))))))))))))))))))))))))))))))))))))))))))))))))))))))))))))))))))))))))))))))))))))))))))))))))))))))))))))))))))))))))))))))))))))))))))))))))))))))))))))))))))))))))))))))))))))))))))))))))))))))))))))))))))))))))))))))))))))))))))))))))))))
(check-sat)
(exit)
